100 74022

 567 531
231 376
874 504
574 904
240 166
90 550
232 181
457 861
233 617
354 612
333 602
439 927
375 812
292 444
345 332
664 503
428 913
657 79
130 585
141 935
415 938
93 688
626 396
284 608
956 857
923 103
655 402
223 975
744 224
463 518
545 634
276 236
682 427
140 116
357 163
713 226
23 230
968 182
736 249
880 318
270 965
859 210
665 656
333 392
85 857
621 96
31 894
741 858
240 756
890 86
363 415
822 394
389 696
653 633
668 844
299 501
857 604
371 582
99 916
47 133
999 791
839 649
422 314
480 699
579 221
62 976
109 438
679 46
549 790
119 192
598 520
382 379
392 788
977 691
52 334
603 39
289 293
337 690
810 162
204 331
880 886
238 104
382 161
667 799
752 635
136 54
407 940
508 34
362 242
381 967
881 890
576 113
635 318
254 23
477 558
114 824
20 647
528 118
145 985
208 701
